(set-option :auto-config true)
(set-option :produce-models true)
(set-option :print-success true)
(set-option :produce-unsat-cores true)
(set-option :produce-models true)
(set-option :smt.mbqi true)
(set-option :produce-proofs true)
(declare-const x Int)
(set-option :produce-proofs false)
(echo "before reset")
(reset)
(set-option :produce-proofs false)